5 5
5 1 1 6 2 3 10 4 10 3 2 4 5 12 3 7 2 1 13 5 9 5 4 17 2 14 1 2 5 11 3 14
7 3 2 7 5 18 1 10 4 4 9 5 8 1 14 2 10 1 4 6 5 2 2 5 16 1 2 4 4 3 12 1 3 15 4 3 2 2 13 4 16 5 8 3 2 17 1 18 3 9
7 1 1 10 1 1 8 3 3 16 1 14 4 2 3 5 9 3 11 2 2 3 1 13 5 5 2 3 2 5 8 3 14 2 3 20 2 11
6 3 3 11 5 13 1 5 5 5 3 1 3 2 9 3 9 4 12 5 2 5 5 15 1 16 4 2 3 9 5 4 4 1 11 2 19 5 14 3 14 5 5 3 1 19 2 4 4 20 3 14 3 2 18 5 13 4 11
5 3 3 4 1 17 5 5 4 1 5 5 12 4 17 2 9 5 4 6 1 16 2 12 5 20 3 2 3 5 19 4 9 3 18 4 3 4 2 2 1 18 5 7